\ This file has been generated by DOcplex
\ ENCODING=ISO-8859-1
\Problem name: Orandom19342_21.lp

Minimize
 obj: - 32.000034106107 x0 - 16.000017053053 x1 - 8.000008526527 x2
      - 24.000034106107 x3 - 12.000017053053 x4 - 6.000008526527 x5
      - 24.000034106107 x6 - 12.000017053053 x7 - 6.000008526527 x8
      - 36.000034106107 x9 - 18.000017053053 x10 - 9.000008526527 x11
      - 44.000034106107 x12 - 22.000017053053 x13 - 11.000008526527 x14
      - 28.000034106107 x15 - 14.000017053053 x16 - 7.000008526527 x17
      - 28.000034106107 x18 - 14.000017053053 x19 - 7.000008526527 x20 + [
      16.000019489204 x0^2 + 16.000019489204 x0*x1 + 8.000009744602 x0*x2
      + 32.000038978408 x0*x3 + 16.000019489204 x0*x4 + 8.000009744602 x0*x5
      + 32.000038978408 x0*x6 + 16.000019489204 x0*x7 + 8.000009744602 x0*x8
      + 32.000038978408 x0*x9 + 16.000019489204 x0*x10 + 8.000009744602 x0*x11
      + 32.000038978408 x0*x12 + 16.000019489204 x0*x13 + 8.000009744602 x0*x14
      + 32.000038978408 x0*x15 + 16.000019489204 x0*x16 + 8.000009744602 x0*x17
      + 32.000038978408 x0*x18 + 16.000019489204 x0*x19 + 8.000009744602 x0*x20
      + 4.000004872301 x1^2 + 4.000004872301 x1*x2 + 16.000019489204 x1*x3
      + 8.000009744602 x1*x4 + 4.000004872301 x1*x5 + 16.000019489204 x1*x6
      + 8.000009744602 x1*x7 + 4.000004872301 x1*x8 + 16.000019489204 x1*x9
      + 8.000009744602 x1*x10 + 4.000004872301 x1*x11 + 16.000019489204 x1*x12
      + 8.000009744602 x1*x13 + 4.000004872301 x1*x14 + 16.000019489204 x1*x15
      + 8.000009744602 x1*x16 + 4.000004872301 x1*x17 + 16.000019489204 x1*x18
      + 8.000009744602 x1*x19 + 4.000004872301 x1*x20 + 1.000001218075 x2^2
      + 8.000009744602 x2*x3 + 4.000004872301 x2*x4 + 2.000002436150 x2*x5
      + 8.000009744602 x2*x6 + 4.000004872301 x2*x7 + 2.000002436150 x2*x8
      + 8.000009744602 x2*x9 + 4.000004872301 x2*x10 + 2.000002436150 x2*x11
      + 8.000009744602 x2*x12 + 4.000004872301 x2*x13 + 2.000002436150 x2*x14
      + 8.000009744602 x2*x15 + 4.000004872301 x2*x16 + 2.000002436150 x2*x17
      + 8.000009744602 x2*x18 + 4.000004872301 x2*x19 + 2.000002436150 x2*x20
      + 80.000019489204 x3^2 + 80.000019489204 x3*x4 + 40.000009744602 x3*x5
      + 96.000038978408 x3*x6 + 48.000019489204 x3*x7 + 24.000009744602 x3*x8
      + 96.000038978408 x3*x9 + 48.000019489204 x3*x10 + 24.000009744602 x3*x11
      + 160.000038978408 x3*x12 + 80.000019489204 x3*x13
      + 40.000009744602 x3*x14 + 96.000038978408 x3*x15 + 48.000019489204 x3*x16
      + 24.000009744602 x3*x17 + 96.000038978408 x3*x18 + 48.000019489204 x3*x19
      + 24.000009744602 x3*x20 + 20.000004872301 x4^2 + 20.000004872301 x4*x5
      + 48.000019489204 x4*x6 + 24.000009744602 x4*x7 + 12.000004872301 x4*x8
      + 48.000019489204 x4*x9 + 24.000009744602 x4*x10 + 12.000004872301 x4*x11
      + 80.000019489204 x4*x12 + 40.000009744602 x4*x13 + 20.000004872301 x4*x14
      + 48.000019489204 x4*x15 + 24.000009744602 x4*x16 + 12.000004872301 x4*x17
      + 48.000019489204 x4*x18 + 24.000009744602 x4*x19 + 12.000004872301 x4*x20
      + 5.000001218075 x5^2 + 24.000009744602 x5*x6 + 12.000004872301 x5*x7
      + 6.000002436150 x5*x8 + 24.000009744602 x5*x9 + 12.000004872301 x5*x10
      + 6.000002436150 x5*x11 + 40.000009744602 x5*x12 + 20.000004872301 x5*x13
      + 10.000002436150 x5*x14 + 24.000009744602 x5*x15 + 12.000004872301 x5*x16
      + 6.000002436150 x5*x17 + 24.000009744602 x5*x18 + 12.000004872301 x5*x19
      + 6.000002436150 x5*x20 + 48.000019489204 x6^2 + 48.000019489204 x6*x7
      + 24.000009744602 x6*x8 + 32.000038978408 x6*x9 + 16.000019489204 x6*x10
      + 8.000009744602 x6*x11 + 32.000038978408 x6*x12 + 16.000019489204 x6*x13
      + 8.000009744602 x6*x14 + 32.000038978408 x6*x15 + 16.000019489204 x6*x16
      + 8.000009744602 x6*x17 + 32.000038978408 x6*x18 + 16.000019489204 x6*x19
      + 8.000009744602 x6*x20 + 12.000004872301 x7^2 + 12.000004872301 x7*x8
      + 16.000019489204 x7*x9 + 8.000009744602 x7*x10 + 4.000004872301 x7*x11
      + 16.000019489204 x7*x12 + 8.000009744602 x7*x13 + 4.000004872301 x7*x14
      + 16.000019489204 x7*x15 + 8.000009744602 x7*x16 + 4.000004872301 x7*x17
      + 16.000019489204 x7*x18 + 8.000009744602 x7*x19 + 4.000004872301 x7*x20
      + 3.000001218075 x8^2 + 8.000009744602 x8*x9 + 4.000004872301 x8*x10
      + 2.000002436150 x8*x11 + 8.000009744602 x8*x12 + 4.000004872301 x8*x13
      + 2.000002436150 x8*x14 + 8.000009744602 x8*x15 + 4.000004872301 x8*x16
      + 2.000002436150 x8*x17 + 8.000009744602 x8*x18 + 4.000004872301 x8*x19
      + 2.000002436150 x8*x20 + 144.000019489204 x9^2 + 144.000019489204 x9*x10
      + 72.000009744602 x9*x11 + 96.000038978408 x9*x12 + 48.000019489204 x9*x13
      + 24.000009744602 x9*x14 + 96.000038978408 x9*x15 + 48.000019489204 x9*x16
      + 24.000009744602 x9*x17 + 96.000038978408 x9*x18 + 48.000019489204 x9*x19
      + 24.000009744602 x9*x20 + 36.000004872301 x10^2 + 36.000004872301 x10*x11
      + 48.000019489204 x10*x12 + 24.000009744602 x10*x13
      + 12.000004872301 x10*x14 + 48.000019489204 x10*x15
      + 24.000009744602 x10*x16 + 12.000004872301 x10*x17
      + 48.000019489204 x10*x18 + 24.000009744602 x10*x19
      + 12.000004872301 x10*x20 + 9.000001218075 x11^2 + 24.000009744602 x11*x12
      + 12.000004872301 x11*x13 + 6.000002436150 x11*x14
      + 24.000009744602 x11*x15 + 12.000004872301 x11*x16
      + 6.000002436150 x11*x17 + 24.000009744602 x11*x18
      + 12.000004872301 x11*x19 + 6.000002436150 x11*x20
      + 144.000019489204 x12^2 + 144.000019489204 x12*x13
      + 72.000009744602 x12*x14 + 96.000038978408 x12*x15
      + 48.000019489204 x12*x16 + 24.000009744602 x12*x17
      + 96.000038978408 x12*x18 + 48.000019489204 x12*x19
      + 24.000009744602 x12*x20 + 36.000004872301 x13^2
      + 36.000004872301 x13*x14 + 48.000019489204 x13*x15
      + 24.000009744602 x13*x16 + 12.000004872301 x13*x17
      + 48.000019489204 x13*x18 + 24.000009744602 x13*x19
      + 12.000004872301 x13*x20 + 9.000001218075 x14^2 + 24.000009744602 x14*x15
      + 12.000004872301 x14*x16 + 6.000002436150 x14*x17
      + 24.000009744602 x14*x18 + 12.000004872301 x14*x19
      + 6.000002436150 x14*x20 + 48.000019489204 x15^2 + 48.000019489204 x15*x16
      + 24.000009744602 x15*x17 + 32.000038978408 x15*x18
      + 16.000019489204 x15*x19 + 8.000009744602 x15*x20 + 12.000004872301 x16^2
      + 12.000004872301 x16*x17 + 16.000019489204 x16*x18
      + 8.000009744602 x16*x19 + 4.000004872301 x16*x20 + 3.000001218075 x17^2
      + 8.000009744602 x17*x18 + 4.000004872301 x17*x19 + 2.000002436150 x17*x20
      + 48.000019489204 x18^2 + 48.000019489204 x18*x19
      + 24.000009744602 x18*x20 + 12.000004872301 x19^2
      + 12.000004872301 x19*x20 + 3.000001218075 x20^2 ]/2 + 24.500029842843
Subject To

Bounds
 0 <= x0 <= 1
 0 <= x1 <= 1
 0 <= x2 <= 1
 0 <= x3 <= 1
 0 <= x4 <= 1
 0 <= x5 <= 1
 0 <= x6 <= 1
 0 <= x7 <= 1
 0 <= x8 <= 1
 0 <= x9 <= 1
 0 <= x10 <= 1
 0 <= x11 <= 1
 0 <= x12 <= 1
 0 <= x13 <= 1
 0 <= x14 <= 1
 0 <= x15 <= 1
 0 <= x16 <= 1
 0 <= x17 <= 1
 0 <= x18 <= 1
 0 <= x19 <= 1
 0 <= x20 <= 1

Binaries
 x0 x1 x2 x3 x4 x5 x6 x7 x8 x9 x10 x11 x12 x13 x14 x15 x16 x17 x18 x19 x20
End
